 $CONTRL SCFTYP=RHF MULT=1 ICHARG=0 RUNTYP=OPTIMIZE
 DFTTYP=PBE0 ISPHER=0 MAXIT=200 NPRINT=-5 $END
 $FORCE METHOD=ANALYTIC  SCLFAC = 0.97 $END
 $BASIS GBASIS=N31 NGAUSS=6 NDFUNC=1 NPFUNC=0 DIFFSP=.F. DIFFS=.F. $END
 $SYSTEM MWORDS=2000 $END
 $SCF DIRSCF=.T. $END
 $DFT IDCVER=4 $END
 $STATPT
 OPTTOL=0.0001 NSTEP=100 HSSEND=.t.
 IHREP = 10
 $END
 $DATA
CH2O2
C1
O     8.0   0.53578   0.49527   0.87255
C     6.0  -0.40317  -0.08268   0.10410
O     8.0  -0.23836  -0.46048  -1.01853
H     1.0   1.35311   0.54532   0.35440
H     1.0  -1.34815  -0.15470   0.66358
 $END
