 $CONTRL SCFTYP=UHF MULT=2 ICHARG=1 RUNTYP=OPTIMIZE
 DFTTYP=PBE0 ISPHER=0 MAXIT=200 NPRINT=-5 $END
 $FORCE METHOD=ANALYTIC  SCLFAC = 0.97 $END
 $BASIS GBASIS=N31 NGAUSS=6 NDFUNC=1 NPFUNC=0 DIFFSP=.F. DIFFS=.F. $END
 $SYSTEM MWORDS=2000 $END
 $SCF DIRSCF=.T. $END
 $DFT IDCVER=4 $END
 $STATPT
 OPTTOL=0.0001 NSTEP=100 HSSEND=.t.
 IHREP = 10
 $END
 $DATA
CH2O2
C1
O     8.0   0.54270   0.48191   0.83273
C     6.0  -0.38658  -0.05795   0.15599
O     8.0  -0.28242  -0.47379  -1.01799
H     1.0   1.40877   0.57280   0.38136
H     1.0  -1.3826  -0.18024   0.62401
 $END
